NAME : graph10
COMMENT : H Algorithm Solution by Oscar Riveros [http://twitter.com/maxtuno]
TYPE : TOUR
DIMENSION : 118
TOUR_SECTION
16
104
74
59
75
82
7
69
63
9
90
27
58
40
66
109
107
3
14
20
18
53
92
12
50
115
32
11
77
38
76
45
47
46
23
2
29
36
56
101
54
22
68
43
52
86
67
44
17
83
55
6
49
97
72
57
19
33
78
71
100
8
70
26
64
37
24
5
93
91
15
80
60
31
103
73
99
118
110
85
114
108
106
113
94
87
112
34
1
84
102
81
35
105
96
21
111
51
39
79
88
95
98
25
116
10
41
65
48
30
13
4
28
42
61
89
62
117
-1
EOF
